command: cadical -w results/20260401/repair_liftability/step2_cnfs/n3_m4/asymm_un_minlib/repaired.model.txt results/20260401/repair_liftability/step2_cnfs/n3_m4/asymm_un_minlib/repaired.cnf
return_code: 10
duration_sec: 0.188311
----- STDOUT -----
c --- [ banner ] -------------------------------------------------------------
c 
c CaDiCaL SAT Solver
c Copyright (c) 2016-2025
c A. Biere, M. Fleury, N. Froleyks, K. Fazekas, F. Pollitt, T. Faller
c JKU Linz, University of Freiburg, TU Wien
c 
c Version 3.0.0
c Apple clang version 17.0.0 (clang-1700.6.3.2) -Wall -Wextra -O3 -DNDEBUG -DNCLOSEFROM
c Tue Dec 23 21:53:37 UTC 2025 Darwin Sequoia-arm64.local 24.6.0 arm64
c 
c --- [ parsing input ] ------------------------------------------------------
c 
c reading DIMACS file from 'results/20260401/repair_liftability/step2_cnfs/n3_m4/asymm_un_minlib/repaired.cnf'
c opening file to read 'results/20260401/repair_liftability/step2_cnfs/n3_m4/asymm_un_minlib/repaired.cnf'
c found 'p cnf 165927 684295' header
c parsed 684295 clauses in 0.12 seconds process time
c 
c --- [ options ] ------------------------------------------------------------
c 
c all options are set to their default value
c 
c --- [ solving ] ------------------------------------------------------------
c 
c time measured in process time since initialization
c 
c  seconds  reduction conflicts       size tier2        variables
c         MB    restarts   redundant    glue  trail           remaining
c          level     rate       size/glu tier1  irredundant
c 
c *  0.12  0  0 0   0  0    0    0 0.0 0 0 2 6  0% 539143 124455 75%
c l  0.13  0  0 0   0  0    0    0 0.0 0 0 2 6  0% 539143 124455 75%
c 1  0.13  0  0 0   0  0    0    0 0.0 0 0 2 6  0% 539143 124455 75%
c 
c --- [ result ] -------------------------------------------------------------
c 
c writing result to 'results/20260401/repair_liftability/step2_cnfs/n3_m4/asymm_un_minlib/repaired.model.txt'
c 
c --- [ run-time profiling ] -------------------------------------------------
c 
c process time taken by individual solving procedures
c (percentage relative to process time for solving)
c 
c         0.12 2566.14% parse
c         0.00   99.38% search
c         0.00   99.36% lucky
c         0.00    0.00% simplify
c   =================================
c         0.00    3.36% solve
c 
c last line shows process time for solving
c (percentage relative to total process time)
c 
c --- [ statistics ] ---------------------------------------------------------
c 
c fixed:                     41472        24.99 %  of all variables
c lucky:                         1       100.00 %  of tried
c minimized:                     0         0.00 %  learned literals
c shrunken:                      0         0.00 %  learned literals
c minishrunken:                  0         0.00 %  learned literals
c propagations:              41472         8.58 M  per second
c ticks:                     82944         2.00    propagation
c 
c seconds are measured in process time for solving
c 
c --- [ glue usage ] ---------------------------------------------------------
c 
c focused glue 2 used 0 clauses 0.000% accumulated 0.000% tier1
c focused glue 3 used 0 clauses 0.000% accumulated 0.000%
c focused glue 4 used 0 clauses 0.000% accumulated 0.000%
c focused glue 5 used 0 clauses 0.000% accumulated 0.000%
c focused glue 6 used 0 clauses 0.000% accumulated 0.000% tier2
c 
c stable glue 2 used 0 clauses 0.000% accumulated 0.000% tier1
c stable glue 3 used 0 clauses 0.000% accumulated 0.000%
c stable glue 4 used 0 clauses 0.000% accumulated 0.000%
c stable glue 5 used 0 clauses 0.000% accumulated 0.000%
c stable glue 6 used 0 clauses 0.000% accumulated 0.000% tier2
c 
c 
c --- [ resources ] ----------------------------------------------------------
c 
c total process time since initialization:         0.14    seconds
c total real time since initialization:            0.15    seconds
c maximum resident set size of process:        78912.00    MB
c 
c --- [ shutting down ] ------------------------------------------------------
c 
c exit 10
----- STDERR -----
